100 10
583 421
257 104
343 388
190 375
297 416
664 559
308 490
458 426
749 143
420 558
255 119
393 489
459 678
655 372
459 526
250 389
759 585
416 430
446 431
555 741
21 674
379 595
556 193
164 160
572 611
408 744
504 314
635 318
775 228
663 131
426 396
715 353
440 144
503 556
854 403
707 340
400 606
227 435
638 325
470 376
506 463
174 796
584 765
696 216
129 694
324 659
182 555
490 493
691 339
790 877
386 497
537 647
562 307
324 553
450 513
835 647
237 821
261 419
390 637
476 259
298 354
199 489
31 612
455 782
306 326
53 465
262 231
632 560
477 816
663 604
318 244
286 526
212 528
722 596
482 540
85 792
195 661
282 423
559 429
581 290
71 780
697 454
741 388
313 571
678 352
583 412
121 409
394 653
630 322
284 540
370 602
807 423
222 429
693 587
548 575
259 478
489 257
732 441
177 458
876 352
